(set-logic QF_S)
(declare-fun var0 () String)
(assert (RegexIn var0 (RegexConcat (RegexPlus (RegexStar (Str2Reg "000"))) (RegexConcat (RegexPlus (RegexStar (Str2Reg "1"))) (RegexConcat (RegexStar (RegexUnion (Str2Reg "22") (Str2Reg "3"))) (RegexConcat (RegexUnion (RegexUnion (Str2Reg "44") (Str2Reg "55")) (RegexUnion (Str2Reg "66") (Str2Reg "777"))) (RegexConcat (RegexUnion (RegexPlus (Str2Reg "88")) (RegexPlus (Str2Reg "99"))) (RegexConcat (RegexPlus (RegexStar (Str2Reg "aaa"))) (RegexConcat (RegexPlus (RegexStar (Str2Reg "bbb"))) (RegexConcat (RegexUnion (RegexPlus (Str2Reg "ccc")) (RegexPlus (Str2Reg "ddd"))) (RegexConcat (RegexPlus (RegexUnion (Str2Reg "eee") (Str2Reg "f"))) (RegexConcat (RegexUnion (RegexStar (Str2Reg "g")) (RegexStar (Str2Reg "hh"))) (RegexConcat (RegexStar (RegexPlus (Str2Reg "iii"))) (RegexConcat (RegexStar (RegexPlus (Str2Reg "jjj"))) (RegexConcat (RegexUnion (RegexPlus (Str2Reg "kkk")) (RegexPlus (Str2Reg "ll"))) (RegexConcat (RegexUnion (RegexStar (Str2Reg "m")) (RegexStar (Str2Reg "nn"))) (RegexConcat (RegexUnion (RegexPlus (Str2Reg "ooo")) (RegexPlus (Str2Reg "pp"))) (RegexConcat (RegexPlus (RegexUnion (Str2Reg "qq") (Str2Reg "rrr"))) (RegexConcat (RegexPlus (RegexStar (Str2Reg "s"))) (RegexConcat (RegexStar (RegexPlus (Str2Reg "t"))) (RegexConcat (RegexPlus (RegexPlus (Str2Reg "uu"))) (RegexConcat (RegexUnion (RegexStar (Str2Reg "v")) (RegexStar (Str2Reg "www"))) (RegexConcat (RegexStar (RegexPlus (Str2Reg "xx"))) (RegexConcat (RegexStar (RegexPlus (Str2Reg "yyy"))) (RegexConcat (RegexUnion (RegexStar (Str2Reg "zz")) (RegexStar (Str2Reg "A"))) (RegexConcat (RegexStar (RegexStar (Str2Reg "BB"))) (RegexConcat (RegexPlus (RegexStar (Str2Reg "C"))) (RegexConcat (RegexUnion (RegexStar (Str2Reg "D")) (RegexStar (Str2Reg "EE"))) (RegexConcat (RegexUnion (RegexStar (Str2Reg "FF")) (RegexStar (Str2Reg "GG"))) (RegexConcat (RegexUnion (RegexUnion (Str2Reg "HH") (Str2Reg "II")) (RegexUnion (Str2Reg "JJ") (Str2Reg "K"))) (RegexConcat (RegexUnion (RegexUnion (Str2Reg "L") (Str2Reg "M")) (RegexUnion (Str2Reg "NNN") (Str2Reg "O"))) (RegexConcat (RegexPlus (RegexPlus (Str2Reg "PPP"))) (RegexConcat (RegexStar (RegexStar (Str2Reg "QQQ"))) (RegexConcat (RegexUnion (RegexStar (Str2Reg "RR")) (RegexStar (Str2Reg "S"))) (RegexConcat (RegexStar (RegexStar (Str2Reg "TT"))) (RegexConcat (RegexPlus (RegexUnion (Str2Reg "UU") (Str2Reg "VVV"))) (RegexConcat (RegexPlus (RegexPlus (Str2Reg "W"))) (RegexConcat (RegexPlus (RegexPlus (Str2Reg "XXX"))) (RegexConcat (RegexUnion (RegexPlus (Str2Reg "Y")) (RegexPlus (Str2Reg "ZZ"))) (RegexConcat (RegexPlus (RegexUnion (Str2Reg "!!") (Str2Reg "\"\""))) (RegexConcat (RegexPlus (RegexUnion (Str2Reg "##") (Str2Reg "$$$"))) (RegexConcat (RegexStar (RegexPlus (Str2Reg "%"))) (RegexConcat (RegexStar (RegexPlus (Str2Reg "&&&"))) (RegexConcat (RegexPlus (RegexPlus (Str2Reg "'''"))) (RegexConcat (RegexStar (RegexUnion (Str2Reg "((") (Str2Reg "))"))) (RegexConcat (RegexPlus (RegexPlus (Str2Reg "***"))) (RegexConcat (RegexUnion (RegexUnion (Str2Reg "+") (Str2Reg ",,,")) (RegexUnion (Str2Reg "-") (Str2Reg ".."))) (RegexConcat (RegexUnion (RegexPlus (Str2Reg "/")) (RegexPlus (Str2Reg ":::"))) (RegexUnion (RegexUnion (Str2Reg ";;;") (Str2Reg "<<<")) (RegexUnion (Str2Reg "=") (Str2Reg ">>")))))))))))))))))))))))))))))))))))))))))))))))))))
(check-sat)